words_hard_train/6013.qaiger
aag 180 24 0 1 156
2
4
12
14
18
22
26
30
34
44
46
52
56
60
64
68
78
80
84
88
92
98
102
108
360
6 2 5
8 3 4
10 7 9
16 13 15
20 16 19
24 20 23
28 24 27
32 28 31
36 32 35
38 10 37
40 11 36
42 39 41
48 44 47
50 49 47
54 50 53
58 54 57
62 58 61
66 62 65
70 66 69
72 43 71
74 42 70
76 73 75
82 78 80
86 83 85
90 86 89
94 90 93
96 95 80
100 97 99
104 100 103
106 104 80
110 106 109
112 76 110
114 77 111
116 113 115
118 63 64
120 119 67
122 29 30
124 123 33
126 121 124
128 45 12
130 45 46
132 131 49
134 12 14
136 135 17
138 133 137
140 132 136
142 139 141
144 128 142
146 145 141
148 51 52
150 149 55
152 17 18
154 153 21
156 150 155
158 151 154
160 157 159
162 147 160
164 163 159
166 55 56
168 167 59
170 21 22
172 171 25
174 169 172
176 164 175
178 168 173
180 177 179
182 59 60
184 183 63
186 25 26
188 187 29
190 184 189
192 185 188
194 191 193
196 180 194
198 197 193
200 127 198
202 120 125
204 201 203
206 67 68
208 207 71
210 33 34
212 211 37
214 208 213
216 209 212
218 215 217
220 204 218
222 221 217
224 117 223
226 116 222
228 225 227
230 105 80
232 231 108
234 230 109
236 233 235
238 205 219
240 239 221
242 236 241
244 237 240
246 243 245
248 96 98
250 249 101
252 181 195
254 253 197
256 251 254
258 82 84
260 259 87
262 129 143
264 263 145
266 261 265
268 260 264
270 267 269
272 87 80
274 273 89
276 272 88
278 275 277
280 146 161
282 281 163
284 279 282
286 91 80
288 287 165
290 286 164
292 289 291
294 175 179
296 294 92
298 295 93
300 297 299
302 292 300
304 285 303
306 271 304
308 257 306
310 101 80
312 311 103
314 310 102
316 313 315
318 203 127
320 316 318
322 317 319
324 321 323
326 325 199
328 324 198
330 327 329
332 44 13
334 333 129
336 335 79
338 334 78
340 337 339
342 278 283
344 341 343
346 293 301
348 344 347
350 330 348
352 308 350
354 250 255
356 352 355
358 247 356
360 229 358
i0 1 x2[7]
i1 2 y2[7]
i2 2 y2[0]
i3 2 y2[1]
i4 2 y2[2]
i5 2 y2[3]
i6 2 y2[4]
i7 2 y2[5]
i8 2 y2[6]
i9 1 x2[0]
i10 1 x2[1]
i11 1 x2[2]
i12 1 x2[3]
i13 1 x2[4]
i14 1 x2[5]
i15 1 x2[6]
i16 2 y1[0]
i17 2 y1[7]
i18 2 y1[1]
i19 2 y1[2]
i20 2 y1[3]
i21 2 y1[4]
i22 2 y1[5]
i23 2 y1[6]
o0 bool[0]
c
simplified
  ==
    subtract
      subtract
        1 x2
        1
      2 y2
    abs
      2 y1
