words_hard_train/6013.qaiger.qdimacs
p cnf 180 469
a 32 1 34 22 23 26 28 30 0
e 2 3 4 5 6 7 8 9 10 11 12 13 14 15 16 17 18 19 20 21 24 25 27 29 31 33 35 36 37 38 39 40 41 42 43 44 45 46 47 48 49 50 51 52 53 54 55 56 57 58 59 60 61 62 63 64 65 66 67 68 69 70 71 72 73 74 75 76 77 78 79 80 81 82 83 84 85 86 87 88 89 90 91 92 93 94 95 96 97 98 99 100 101 102 103 104 105 106 107 108 109 110 111 112 113 114 115 116 117 118 119 120 121 122 123 124 125 126 127 128 129 130 131 132 133 134 135 136 137 138 139 140 141 142 143 144 145 146 147 148 149 150 151 152 153 154 155 156 157 158 159 160 161 162 163 164 165 166 167 168 169 170 171 172 173 174 175 176 177 178 179 180 0
-1 2 3 0
1 -3 0
-2 -3 0
1 -2 4 0
-1 -4 0
2 -4 0
3 4 5 0
-3 -5 0
-4 -5 0
6 7 8 0
-6 -8 0
-7 -8 0
-8 9 10 0
8 -10 0
-9 -10 0
-10 11 12 0
10 -12 0
-11 -12 0
-12 13 14 0
12 -14 0
-13 -14 0
-14 15 16 0
14 -16 0
-15 -16 0
-16 17 18 0
16 -18 0
-17 -18 0
-5 18 19 0
5 -19 0
-18 -19 0
5 -18 20 0
-5 -20 0
18 -20 0
19 20 21 0
-19 -21 0
-20 -21 0
-22 23 24 0
22 -24 0
-23 -24 0
24 23 25 0
-24 -25 0
-23 -25 0
-25 26 27 0
25 -27 0
-26 -27 0
-27 28 29 0
27 -29 0
-28 -29 0
-29 30 31 0
29 -31 0
-30 -31 0
-31 32 33 0
31 -33 0
-32 -33 0
-33 34 35 0
33 -35 0
-34 -35 0
21 35 36 0
-21 -36 0
-35 -36 0
-21 -35 37 0
21 -37 0
35 -37 0
36 37 38 0
-36 -38 0
-37 -38 0
-39 -40 41 0
39 -41 0
40 -41 0
41 42 43 0
-41 -43 0
-42 -43 0
-43 44 45 0
43 -45 0
-44 -45 0
-45 46 47 0
45 -47 0
-46 -47 0
47 -40 48 0
-47 -48 0
40 -48 0
48 49 50 0
-48 -50 0
-49 -50 0
-50 51 52 0
50 -52 0
-51 -52 0
-52 -40 53 0
52 -53 0
40 -53 0
-53 54 55 0
53 -55 0
-54 -55 0
-38 -55 56 0
38 -56 0
55 -56 0
38 55 57 0
-38 -57 0
-55 -57 0
56 57 58 0
-56 -58 0
-57 -58 0
31 -32 59 0
-31 -59 0
32 -59 0
59 33 60 0
-59 -60 0
-33 -60 0
14 -15 61 0
-14 -61 0
15 -61 0
61 16 62 0
-61 -62 0
-16 -62 0
60 -62 63 0
-60 -63 0
62 -63 0
22 -6 64 0
-22 -64 0
6 -64 0
22 -23 65 0
-22 -65 0
23 -65 0
65 24 66 0
-65 -66 0
-24 -66 0
-6 -7 67 0
6 -67 0
7 -67 0
67 8 68 0
-67 -68 0
-8 -68 0
66 68 69 0
-66 -69 0
-68 -69 0
-66 -68 70 0
66 -70 0
68 -70 0
69 70 71 0
-69 -71 0
-70 -71 0
-64 -71 72 0
64 -72 0
71 -72 0
72 70 73 0
-72 -73 0
-70 -73 0
25 -26 74 0
-25 -74 0
26 -74 0
74 27 75 0
-74 -75 0
-27 -75 0
8 -9 76 0
-8 -76 0
9 -76 0
76 10 77 0
-76 -77 0
-10 -77 0
-75 77 78 0
75 -78 0
-77 -78 0
75 -77 79 0
-75 -79 0
77 -79 0
78 79 80 0
-78 -80 0
-79 -80 0
73 -80 81 0
-73 -81 0
80 -81 0
81 79 82 0
-81 -82 0
-79 -82 0
27 -28 83 0
-27 -83 0
28 -83 0
83 29 84 0
-83 -84 0
-29 -84 0
10 -11 85 0
-10 -85 0
11 -85 0
85 12 86 0
-85 -86 0
-12 -86 0
84 -86 87 0
-84 -87 0
86 -87 0
-82 87 88 0
82 -88 0
-87 -88 0
-84 86 89 0
84 -89 0
-86 -89 0
88 89 90 0
-88 -90 0
-89 -90 0
29 -30 91 0
-29 -91 0
30 -91 0
91 31 92 0
-91 -92 0
-31 -92 0
12 -13 93 0
-12 -93 0
13 -93 0
93 14 94 0
-93 -94 0
-14 -94 0
-92 94 95 0
92 -95 0
-94 -95 0
92 -94 96 0
-92 -96 0
94 -96 0
95 96 97 0
-95 -97 0
-96 -97 0
-90 -97 98 0
90 -98 0
97 -98 0
98 96 99 0
-98 -99 0
-96 -99 0
63 -99 100 0
-63 -100 0
99 -100 0
-60 62 101 0
60 -101 0
-62 -101 0
100 101 102 0
-100 -102 0
-101 -102 0
33 -34 103 0
-33 -103 0
34 -103 0
103 35 104 0
-103 -104 0
-35 -104 0
16 -17 105 0
-16 -105 0
17 -105 0
105 18 106 0
-105 -106 0
-18 -106 0
-104 106 107 0
104 -107 0
-106 -107 0
104 -106 108 0
-104 -108 0
106 -108 0
107 108 109 0
-107 -109 0
-108 -109 0
-102 -109 110 0
102 -110 0
109 -110 0
110 108 111 0
-110 -111 0
-108 -111 0
58 111 112 0
-58 -112 0
-111 -112 0
-58 -111 113 0
58 -113 0
111 -113 0
112 113 114 0
-112 -114 0
-113 -114 0
52 -40 115 0
-52 -115 0
40 -115 0
115 -54 116 0
-115 -116 0
54 -116 0
-115 54 117 0
115 -117 0
-54 -117 0
116 117 118 0
-116 -118 0
-117 -118 0
102 109 119 0
-102 -119 0
-109 -119 0
119 110 120 0
-119 -120 0
-110 -120 0
-118 120 121 0
118 -121 0
-120 -121 0
118 -120 122 0
-118 -122 0
120 -122 0
121 122 123 0
-121 -123 0
-122 -123 0
-48 -49 124 0
48 -124 0
49 -124 0
124 50 125 0
-124 -125 0
-50 -125 0
90 97 126 0
-90 -126 0
-97 -126 0
126 98 127 0
-126 -127 0
-98 -127 0
125 -127 128 0
-125 -128 0
127 -128 0
-41 -42 129 0
41 -129 0
42 -129 0
129 43 130 0
-129 -130 0
-43 -130 0
64 71 131 0
-64 -131 0
-71 -131 0
131 72 132 0
-131 -132 0
-72 -132 0
130 132 133 0
-130 -133 0
-132 -133 0
-130 -132 134 0
130 -134 0
132 -134 0
133 134 135 0
-133 -135 0
-134 -135 0
43 -40 136 0
-43 -136 0
40 -136 0
136 44 137 0
-136 -137 0
-44 -137 0
-136 -44 138 0
136 -138 0
44 -138 0
137 138 139 0
-137 -139 0
-138 -139 0
-73 80 140 0
73 -140 0
-80 -140 0
140 81 141 0
-140 -141 0
-81 -141 0
139 -141 142 0
-139 -142 0
141 -142 0
45 -40 143 0
-45 -143 0
40 -143 0
143 82 144 0
-143 -144 0
-82 -144 0
-143 -82 145 0
143 -145 0
82 -145 0
144 145 146 0
-144 -146 0
-145 -146 0
87 89 147 0
-87 -147 0
-89 -147 0
-147 -46 148 0
147 -148 0
46 -148 0
147 46 149 0
-147 -149 0
-46 -149 0
148 149 150 0
-148 -150 0
-149 -150 0
-146 -150 151 0
146 -151 0
150 -151 0
142 151 152 0
-142 -152 0
-151 -152 0
135 -152 153 0
-135 -153 0
152 -153 0
128 -153 154 0
-128 -154 0
153 -154 0
50 -40 155 0
-50 -155 0
40 -155 0
155 51 156 0
-155 -156 0
-51 -156 0
-155 -51 157 0
155 -157 0
51 -157 0
156 157 158 0
-156 -158 0
-157 -158 0
101 63 159 0
-101 -159 0
-63 -159 0
-158 -159 160 0
158 -160 0
159 -160 0
158 159 161 0
-158 -161 0
-159 -161 0
160 161 162 0
-160 -162 0
-161 -162 0
162 99 163 0
-162 -163 0
-99 -163 0
-162 -99 164 0
162 -164 0
99 -164 0
163 164 165 0
-163 -165 0
-164 -165 0
-22 6 166 0
22 -166 0
-6 -166 0
166 64 167 0
-166 -167 0
-64 -167 0
167 39 168 0
-167 -168 0
-39 -168 0
-167 -39 169 0
167 -169 0
39 -169 0
168 169 170 0
-168 -170 0
-169 -170 0
-139 141 171 0
139 -171 0
-141 -171 0
170 171 172 0
-170 -172 0
-171 -172 0
146 150 173 0
-146 -173 0
-150 -173 0
-172 173 174 0
172 -174 0
-173 -174 0
-165 -174 175 0
165 -175 0
174 -175 0
-154 -175 176 0
154 -176 0
175 -176 0
-125 127 177 0
125 -177 0
-127 -177 0
-176 177 178 0
176 -178 0
-177 -178 0
123 -178 179 0
-123 -179 0
178 -179 0
114 -179 180 0
-114 -180 0
179 -180 0
180 0
